p tdp 20 91
1 7
1 9
1 16
1 17
1 18
2 4
2 7
2 8
2 11
2 12
2 13
2 14
2 18
2 19
2 20
3 5
3 6
3 8
3 14
3 17
3 18
3 20
4 5
4 6
4 7
4 8
4 9
4 10
4 11
4 12
4 14
4 17
5 6
5 8
5 11
5 12
5 13
5 18
5 19
6 7
6 8
6 10
6 12
6 13
6 14
6 18
6 20
7 8
7 9
7 10
7 12
7 13
7 15
7 19
7 20
8 9
8 10
8 11
8 13
8 19
8 20
9 11
9 13
9 14
9 16
9 19
10 11
10 12
10 13
10 14
10 17
10 20
11 12
11 17
11 18
12 14
12 15
12 16
12 20
13 16
13 18
13 19
14 15
15 17
15 18
15 19
16 19
17 18
17 19
17 20
19 20
